c FILE /home/rafael/Documents/HappySet/MIHS/inputs/happygen/output/graph_d_regular_k7_p0.1_v100_20241127_084055.txt
c SOURCE This is a d-regular graph formed for the happy graph colouring problem.
c DESCRIPTION It was generated using the problem generator of Rhyd Lewis
c
c GRAPH STATS
c Seed                             = -1515644114
c Number of Nodes                  = 100
c Number of colours k              = 7
c Number of pre-assignments        = 10
c Degree of all vertices           = 6
c Density                          = 0.0606061
c 
c The degrees of nodes 1 to 100, respectively, are as follows 
c [6, 6, 6, 6, 6, 6, 6, 6, 6, 6, 6, 6, 6, 6, 6, 6, 6, 6, 6, 6, 6, 6, 6, 6, 6, 6, 
c  6, 6, 6, 6, 6, 6, 6, 6, 6, 6, 6, 6, 6, 6, 6, 6, 6, 6, 6, 6, 6, 6, 6, 6, 6, 
c  6, 6, 6, 6, 6, 6, 6, 6, 6, 6, 6, 6, 6, 6, 6, 6, 6, 6, 6, 6, 6, 6, 6, 6, 6, 
c  6, 6, 6, 6, 6, 6, 6, 6, 6, 6, 6, 6, 6, 6, 6, 6, 6, 6, 6, 6, 6, 6, 6, 6] 
c  
p edge 100 300 7
e 1 10
e 1 11
e 1 16
e 1 22
e 1 28
e 1 51
e 2 17
e 2 21
e 2 62
e 2 81
e 2 89
e 2 92
e 3 16
e 3 28
e 3 61
e 3 68
e 3 84
e 3 89
e 4 24
e 4 40
e 4 46
e 4 53
e 4 55
e 4 66
e 5 37
e 5 58
e 5 59
e 5 64
e 5 72
e 5 77
e 6 12
e 6 36
e 6 57
e 6 76
e 6 81
e 6 85
e 7 26
e 7 31
e 7 52
e 7 54
e 7 57
e 7 74
e 8 20
e 8 21
e 8 46
e 8 66
e 8 72
e 8 82
e 9 10
e 9 64
e 9 72
e 9 79
e 9 84
e 9 95
e 10 51
e 10 60
e 10 89
e 10 94
e 11 15
e 11 39
e 11 58
e 11 69
e 11 93
e 12 31
e 12 32
e 12 52
e 12 72
e 12 98
e 13 47
e 13 64
e 13 77
e 13 78
e 13 91
e 13 94
e 14 16
e 14 18
e 14 34
e 14 41
e 14 79
e 14 93
e 15 30
e 15 48
e 15 61
e 15 77
e 15 95
e 16 45
e 16 58
e 16 89
e 17 23
e 17 61
e 17 68
e 17 92
e 17 96
e 18 31
e 18 33
e 18 44
e 18 86
e 18 96
e 19 25
e 19 27
e 19 31
e 19 34
e 19 43
e 19 92
e 20 31
e 20 41
e 20 42
e 20 59
e 20 81
e 21 44
e 21 48
e 21 71
e 21 87
e 22 25
e 22 26
e 22 46
e 22 85
e 22 91
e 23 24
e 23 28
e 23 33
e 23 44
e 23 76
e 24 39
e 24 49
e 24 79
e 24 97
e 25 32
e 25 91
e 25 98
e 25 100
e 26 29
e 26 35
e 26 70
e 26 75
e 27 41
e 27 71
e 27 80
e 27 97
e 27 99
e 28 30
e 28 60
e 28 95
e 29 30
e 29 49
e 29 52
e 29 61
e 29 94
e 30 43
e 30 86
e 30 87
e 31 49
e 32 34
e 32 45
e 32 62
e 32 83
e 33 74
e 33 80
e 33 87
e 33 98
e 34 66
e 34 79
e 34 84
e 35 46
e 35 52
e 35 75
e 35 87
e 35 100
e 36 44
e 36 50
e 36 70
e 36 73
e 36 87
e 37 43
e 37 75
e 37 79
e 37 86
e 37 98
e 38 56
e 38 59
e 38 75
e 38 76
e 38 94
e 38 99
e 39 47
e 39 74
e 39 87
e 39 100
e 40 58
e 40 71
e 40 85
e 40 88
e 40 97
e 41 55
e 41 90
e 41 100
e 42 47
e 42 63
e 42 80
e 42 95
e 42 99
e 43 65
e 43 71
e 43 83
e 44 68
e 44 83
e 45 48
e 45 51
e 45 58
e 45 88
e 46 53
e 46 74
e 47 59
e 47 69
e 47 88
e 48 62
e 48 67
e 48 70
e 49 66
e 49 73
e 49 83
e 50 54
e 50 65
e 50 67
e 50 86
e 50 98
e 51 69
e 51 77
e 51 90
e 52 56
e 52 85
e 53 54
e 53 57
e 53 60
e 53 89
e 54 63
e 54 78
e 54 96
e 55 57
e 55 73
e 55 83
e 55 95
e 56 57
e 56 63
e 56 70
e 56 73
e 57 96
e 58 88
e 59 60
e 59 66
e 60 67
e 60 74
e 61 77
e 61 80
e 62 84
e 62 90
e 62 93
e 63 67
e 63 78
e 63 100
e 64 68
e 64 88
e 64 93
e 65 68
e 65 82
e 65 91
e 65 97
e 66 71
e 67 82
e 67 92
e 68 84
e 69 72
e 69 74
e 69 89
e 70 98
e 70 100
e 71 96
e 72 75
e 73 90
e 73 97
e 75 80
e 76 79
e 76 84
e 76 90
e 77 99
e 78 83
e 78 86
e 78 95
e 80 90
e 81 82
e 81 86
e 81 88
e 82 93
e 82 94
e 85 94
e 85 96
e 91 92
e 91 99
e 92 99
e 93 97
n 18 5
n 36 3
n 42 1
n 49 2
n 74 1
n 75 4
n 77 6
n 87 3
n 88 7
n 90 3
